************************************************************************
file with basedata            : md189_.bas
initial value random generator: 1443780626
************************************************************************
projects                      :  1
jobs (incl. supersource/sink ):  16
horizon                       :  126
RESOURCES
  - renewable                 :  2   R
  - nonrenewable              :  2   N
  - doubly constrained        :  0   D
************************************************************************
PROJECT INFORMATION:
pronr.  #jobs rel.date duedate tardcost  MPM-Time
    1     14      0       25        1       25
************************************************************************
PRECEDENCE RELATIONS:
jobnr.    #modes  #successors   successors
   1        1          3           2   3   4
   2        3          2           5   6
   3        3          3           8  10  11
   4        3          3           9  12  14
   5        3          2           7  12
   6        3          2          10  11
   7        3          3           8   9  14
   8        3          1          15
   9        3          2          11  13
  10        3          3          13  14  15
  11        3          1          15
  12        3          1          13
  13        3          1          16
  14        3          1          16
  15        3          1          16
  16        1          0        
************************************************************************
REQUESTS/DURATIONS:
jobnr. mode duration  R 1  R 2  N 1  N 2
------------------------------------------------------------------------
  1      1     0       0    0    0    0
  2      1     1       6    3    9    8
         2     5       5    2    8    7
         3     9       5    2    7    3
  3      1     4       4    2    6    4
         2     6       3    2    6    4
         3     9       1    2    3    4
  4      1     2       4    9    8    5
         2     8       3    6    7    3
         3     9       2    5    7    2
  5      1     6       3    7    8    8
         2     6       8    7    8    4
         3     6       5    8    7    2
  6      1     4       7    3    4    8
         2     9       4    2    4    7
         3     9       5    2    4    6
  7      1     4       9    7    9    6
         2     8       5    7    9    6
         3     9       3    7    8    3
  8      1     4       5    7    2    5
         2     5       5    6    2    4
         3     9       5    4    2    1
  9      1     5       6    6    7    5
         2     6       6    5    7    5
         3    10       6    4    6    3
 10      1     4      10   10    3    6
         2     8       9   10    3    6
         3     9       7   10    2    4
 11      1     1       8    5    7    9
         2     6       7    4    4    6
         3     8       4    2    4    3
 12      1     5       6    8    8    6
         2     6       6    5    6    5
         3    10       5    4    2    3
 13      1     8       2    6    7    7
         2     8       2    5    8    7
         3    10       1    5    7    6
 14      1     1       9   10    7    9
         2     4       8    8    6    5
         3     9       7    7    6    5
 15      1     8       6    9    2    5
         2     9       5    7    2    3
         3    10       2    6    1    3
 16      1     0       0    0    0    0
************************************************************************
RESOURCEAVAILABILITIES:
  R 1  R 2  N 1  N 2
   12   15   88   91
************************************************************************
